language Essence 1.3

letting blksize_delta be
        function(1 --> 10, 2 --> 8, 3 --> 8, 4 --> 8, 5 --> 9, 6 --> 8, 7 --> 9, 8 --> 10, 9 --> 8, 10 --> 8, 11 --> 9,
                 12 --> 8, 13 --> 8, 14 --> 8, 15 --> 8, 16 --> 9, 17 --> 10, 18 --> 8, 19 --> 9)
letting maxcars be
        function(1 --> 10, 2 --> 10, 3 --> 10, 4 --> 10, 5 --> 10, 6 --> 10, 7 --> 10, 8 --> 10, 9 --> 10, 10 --> 10,
                 11 --> 10, 12 --> 10, 13 --> 10, 14 --> 10, 15 --> 10, 16 --> 10, 17 --> 10, 18 --> 10, 19 --> 10)
letting n_cars be 207
letting n_classes be 21
letting n_options be 19
letting quantity be
        function(1 --> 9, 2 --> 9, 3 --> 11, 4 --> 9, 5 --> 9, 6 --> 9, 7 --> 9, 8 --> 9, 9 --> 18, 10 --> 10,
                 11 --> 13, 12 --> 10, 13 --> 10, 14 --> 9, 15 --> 9, 16 --> 9, 17 --> 9, 18 --> 9, 19 --> 9, 20 --> 9,
                 21 --> 9)
letting usage be
        relation((1, 5), (1, 6), (1, 7), (1, 10), (1, 12), (1, 18), (2, 11), (2, 14), (3, 3), (3, 8), (3, 10), (3, 11),
                 (3, 13), (3, 15), (3, 17), (4, 5), (4, 9), (4, 12), (4, 19), (5, 6), (5, 9), (5, 12), (6, 4), (6, 5),
                 (6, 6), (6, 7), (6, 9), (6, 12), (6, 13), (6, 19), (7, 8), (7, 10), (7, 11), (7, 19), (8, 1), (8, 2),
                 (8, 4), (8, 5), (8, 9), (9, 1), (9, 7), (9, 8), (9, 10), (9, 14), (9, 17), (9, 18), (10, 2), (10, 4),
                 (10, 13), (11, 2), (11, 4), (11, 14), (11, 15), (11, 16), (12, 7), (12, 11), (12, 15), (12, 19),
                 (13, 8), (14, 2), (14, 4), (14, 6), (14, 9), (14, 10), (14, 13), (14, 18), (15, 2), (15, 13), (15, 15),
                 (16, 1), (16, 8), (16, 11), (16, 12), (16, 19), (17, 19), (18, 4), (18, 7), (18, 17), (18, 19),
                 (19, 15), (20, 2), (20, 5), (20, 15), (20, 16), (20, 17), (20, 19), (21, 3), (21, 6), (21, 7),
                 (21, 15), (21, 17))
$ Visualisation for usage
$  1  5
$  1  6
$  1  7
$  1 10
$  1 12
$  1 18
$  2 11
$  2 14
$  3  3
$  3  8
$  3 10
$  3 11
$  3 13
$  3 15
$  3 17
$  4  5
$  4  9
$  4 12
$  4 19
$  5  6
$  5  9
$  5 12
$  6  4
$  6  5
$  6  6
$  6  7
$  6  9
$  6 12
$  6 13
$  6 19
$  7  8
$  7 10
$  7 11
$  7 19
$  8  1
$  8  2
$  8  4
$  8  5
$  8  9
$  9  1
$  9  7
$  9  8
$  9 10
$  9 14
$  9 17
$  9 18
$ 10  2
$ 10  4
$ 10 13
$ 11  2
$ 11  4
$ 11 14
$ 11 15
$ 11 16
$ 12  7
$ 12 11
$ 12 15
$ 12 19
$ 13  8
$ 14  2
$ 14  4
$ 14  6
$ 14  9
$ 14 10
$ 14 13
$ 14 18
$ 15  2
$ 15 13
$ 15 15
$ 16  1
$ 16  8
$ 16 11
$ 16 12
$ 16 19
$ 17 19
$ 18  4
$ 18  7
$ 18 17
$ 18 19
$ 19 15
$ 20  2
$ 20  5
$ 20 15
$ 20 16
$ 20 17
$ 20 19
$ 21  3
$ 21  6
$ 21  7
$ 21 15
$ 21 17

